# SCIP version 4.0.0.2

# the bandit algorithm: (u)pper confidence bounds, (e)xp.3, epsilon (g)reedy
# [type: char, advanced: TRUE, range: {ueg}, default: e]
heuristics/lns/banditalgo = g

heuristics/lns/gaincontrol = 0.0